
Gurobi 11.0.1 (win64) logging started Thu Mar 14 08:02:08 2024

Set parameter LogFile to value "C:\Projetos\Job_Rotation_Algorithms\Outputs\GurobiLogs\gurobi_log-output-51_ros-c12-CostaMirallesModel-NoExtraConstraint-2.log"
Gurobi Optimizer version 11.0.1 build v11.0.1rc0 (win64 - Windows 10.0 (19045.2))

CPU model: 11th Gen Intel(R) Core(TM) i7-1165G7 @ 2.80GHz, instruction set [SSE2|AVX|AVX2|AVX512]
Thread count: 4 physical cores, 8 logical processors, using up to 1 threads


Gurobi 11.0.1 (win64) logging started Fri Mar 15 00:39:35 2024

Set parameter LogFile to value "C:\Projetos\Job_Rotation_Algorithms\Outputs\GurobiLogs\gurobi_log-output-51_ros-c12-CostaMirallesModel-NoExtraConstraint-2.log"
Gurobi Optimizer version 11.0.1 build v11.0.1rc0 (win64 - Windows 10.0 (19045.2))

CPU model: 11th Gen Intel(R) Core(TM) i7-1165G7 @ 2.80GHz, instruction set [SSE2|AVX|AVX2|AVX512]
Thread count: 4 physical cores, 8 logical processors, using up to 1 threads


Gurobi 11.0.1 (win64) logging started Sat Mar 16 12:25:50 2024

Set parameter LogFile to value "C:\Projetos\Job_Rotation_Algorithms\Outputs\GurobiLogs\gurobi_log-output-51_ros-c12-CostaMirallesModel-NoExtraConstraint-2.log"
Gurobi Optimizer version 11.0.1 build v11.0.1rc0 (win64 - Windows 10.0 (19045.2))

CPU model: 11th Gen Intel(R) Core(TM) i7-1165G7 @ 2.80GHz, instruction set [SSE2|AVX|AVX2|AVX512]
Thread count: 4 physical cores, 8 logical processors, using up to 1 threads


Gurobi 11.0.1 (win64) logging started Sat Mar 16 22:34:54 2024

Set parameter LogFile to value "C:\Projetos\Job_Rotation_Algorithms\Outputs\GurobiLogs\gurobi_log-output-51_ros-c12-CostaMirallesModel-NoExtraConstraint-2.log"
Gurobi Optimizer version 11.0.1 build v11.0.1rc0 (win64 - Windows 10.0 (19045.2))

CPU model: 11th Gen Intel(R) Core(TM) i7-1165G7 @ 2.80GHz, instruction set [SSE2|AVX|AVX2|AVX512]
Thread count: 4 physical cores, 8 logical processors, using up to 1 threads


Gurobi 11.0.1 (win64) logging started Sun Mar 17 01:27:15 2024

Set parameter LogFile to value "C:\Projetos\Job_Rotation_Algorithms\Outputs\GurobiLogs\gurobi_log-output-51_ros-c12-CostaMirallesModel-NoExtraConstraint-2.log"
Gurobi Optimizer version 11.0.1 build v11.0.1rc0 (win64 - Windows 10.0 (19045.2))

CPU model: 11th Gen Intel(R) Core(TM) i7-1165G7 @ 2.80GHz, instruction set [SSE2|AVX|AVX2|AVX512]
Thread count: 4 physical cores, 8 logical processors, using up to 1 threads

WLS license 901039 - registered to Bitka Analytics
Optimize a model with 676 rows, 1699 columns and 17425 nonzeros
Model fingerprint: 0x042b9742
Variable types: 2 continuous, 1697 integer (1697 binary)
Coefficient statistics:
  Matrix range     [1e+00, 3e+01]
  Objective range  [1e+00, 1e+00]
  Bounds range     [1e+00, 2e+01]
  RHS range        [1e+00, 2e+01]
Presolve removed 69 rows and 619 columns
Presolve time: 0.11s
Presolved: 607 rows, 1080 columns, 9665 nonzeros
Variable types: 0 continuous, 1080 integer (1075 binary)

Root relaxation: objective 5.000000e+01, 827 iterations, 0.02 seconds (0.02 work units)

    Nodes    |    Current Node    |     Objective Bounds      |     Work
 Expl Unexpl |  Obj  Depth IntInf | Incumbent    BestBd   Gap | It/Node Time

     0     0   50.00000    0   38          -   50.00000      -     -    0s
     0     0   50.00000    0  229          -   50.00000      -     -    0s
     0     0   50.00000    0  203          -   50.00000      -     -    0s
     0     0   50.00000    0   58          -   50.00000      -     -    0s
     0     0   50.00000    0   77          -   50.00000      -     -    0s
     0     0   50.00000    0   52          -   50.00000      -     -    0s
     0     0   50.00000    0  129          -   50.00000      -     -    0s
     0     0   50.00000    0   30          -   50.00000      -     -    0s
     0     0   50.00000    0   93          -   50.00000      -     -    0s
     0     0   50.00000    0   76          -   50.00000      -     -    0s
     0     0   50.00000    0   40          -   50.00000      -     -    0s
     0     2   50.00000    0   33          -   50.00000      -     -    0s
*  951   289              34      34.0000000   50.00000  47.1%  54.5    2s
H  967   264                      36.0000000   50.00000  38.9%  53.6    2s
H  993   275                      38.0000000   50.00000  31.6%  56.4    3s
H  993   275                      40.0000000   50.00000  25.0%  56.4    3s
H 1100   299                      41.0000000   50.00000  22.0%  56.9    3s
H 1106   295                      42.0000000   50.00000  19.0%  57.0    3s
H 1270   276                      44.0000000   50.00000  13.6%  60.0    3s
H 1356   270                      45.0000000   50.00000  11.1%  59.6    4s
H 1356   144                      49.0000000   50.00000  2.04%  59.6    4s
H 1362   142                      50.0000000   50.00000  0.00%  59.5    4s

Cutting planes:
  Cover: 31
  Clique: 41
  MIR: 3
  StrongCG: 1
  Flow cover: 4
  GUB cover: 3
  Zero half: 1
  RLT: 2
  BQP: 3

Explored 1362 nodes (95761 simplex iterations) in 4.90 seconds (4.85 work units)
Thread count was 1 (of 8 available processors)

Solution count 10: 50 49 45 ... 34

Optimal solution found (tolerance 1.00e-03)
Best objective 5.000000000000e+01, best bound 5.000000000000e+01, gap 0.0000%
